; benchmark generated from python API
(set-info :status unknown)
(declare-fun cell_1_1 () Int)
(declare-fun cell_1_5 () Int)
(declare-fun cell_1_7 () Int)
(declare-fun cell_2_1 () Int)
(declare-fun cell_2_3 () Int)
(declare-fun cell_2_9 () Int)
(declare-fun cell_3_5 () Int)
(declare-fun cell_3_6 () Int)
(declare-fun cell_4_2 () Int)
(declare-fun cell_4_8 () Int)
(declare-fun cell_5_3 () Int)
(declare-fun cell_5_9 () Int)
(declare-fun cell_6_4 () Int)
(declare-fun cell_6_6 () Int)
(declare-fun cell_7_1 () Int)
(declare-fun cell_7_5 () Int)
(declare-fun cell_8_2 () Int)
(declare-fun cell_8_8 () Int)
(declare-fun cell_9_4 () Int)
(declare-fun cell_9_7 () Int)
(declare-fun cell_3_1 () Int)
(declare-fun cell_4_1 () Int)
(declare-fun cell_5_1 () Int)
(declare-fun cell_6_1 () Int)
(declare-fun cell_8_1 () Int)
(declare-fun cell_9_1 () Int)
(declare-fun cell_1_2 () Int)
(declare-fun cell_2_2 () Int)
(declare-fun cell_3_2 () Int)
(declare-fun cell_5_2 () Int)
(declare-fun cell_6_2 () Int)
(declare-fun cell_7_2 () Int)
(declare-fun cell_9_2 () Int)
(declare-fun cell_1_3 () Int)
(declare-fun cell_3_3 () Int)
(declare-fun cell_4_3 () Int)
(declare-fun cell_6_3 () Int)
(declare-fun cell_7_3 () Int)
(declare-fun cell_8_3 () Int)
(declare-fun cell_9_3 () Int)
(declare-fun cell_1_4 () Int)
(declare-fun cell_2_4 () Int)
(declare-fun cell_3_4 () Int)
(declare-fun cell_4_4 () Int)
(declare-fun cell_5_4 () Int)
(declare-fun cell_7_4 () Int)
(declare-fun cell_8_4 () Int)
(declare-fun cell_2_5 () Int)
(declare-fun cell_4_5 () Int)
(declare-fun cell_5_5 () Int)
(declare-fun cell_6_5 () Int)
(declare-fun cell_8_5 () Int)
(declare-fun cell_9_5 () Int)
(declare-fun cell_1_6 () Int)
(declare-fun cell_2_6 () Int)
(declare-fun cell_4_6 () Int)
(declare-fun cell_5_6 () Int)
(declare-fun cell_7_6 () Int)
(declare-fun cell_8_6 () Int)
(declare-fun cell_9_6 () Int)
(declare-fun cell_2_7 () Int)
(declare-fun cell_3_7 () Int)
(declare-fun cell_4_7 () Int)
(declare-fun cell_5_7 () Int)
(declare-fun cell_6_7 () Int)
(declare-fun cell_7_7 () Int)
(declare-fun cell_8_7 () Int)
(declare-fun cell_1_8 () Int)
(declare-fun cell_2_8 () Int)
(declare-fun cell_3_8 () Int)
(declare-fun cell_5_8 () Int)
(declare-fun cell_6_8 () Int)
(declare-fun cell_7_8 () Int)
(declare-fun cell_9_8 () Int)
(declare-fun cell_1_9 () Int)
(declare-fun cell_3_9 () Int)
(declare-fun cell_4_9 () Int)
(declare-fun cell_6_9 () Int)
(declare-fun cell_7_9 () Int)
(declare-fun cell_8_9 () Int)
(declare-fun cell_9_9 () Int)
(assert
 (= cell_1_1 1))
(assert
 (= cell_1_5 3))
(assert
 (= cell_1_7 2))
(assert
 (= cell_2_1 3))
(assert
 (= cell_2_3 2))
(assert
 (= cell_2_9 1))
(assert
 (= cell_3_5 2))
(assert
 (= cell_3_6 1))
(assert
 (= cell_4_2 2))
(assert
 (= cell_4_8 1))
(assert
 (= cell_5_3 1))
(assert
 (= cell_5_9 2))
(assert
 (= cell_6_4 1))
(assert
 (= cell_6_6 2))
(assert
 (= cell_7_1 2))
(assert
 (= cell_7_5 1))
(assert
 (= cell_8_2 1))
(assert
 (= cell_8_8 2))
(assert
 (= cell_9_4 2))
(assert
 (= cell_9_7 1))
(assert
 (let (($x729 (= cell_1_1 1)))
 (or $x729 (= cell_1_1 2) (= cell_1_1 3) (= cell_1_1 4) (= cell_1_1 5) (= cell_1_1 6) (= cell_1_1 7) (= cell_1_1 8) (= cell_1_1 9))))
(assert
 (let (($x435 (= cell_2_1 3)))
 (or (= cell_2_1 1) (= cell_2_1 2) $x435 (= cell_2_1 4) (= cell_2_1 5) (= cell_2_1 6) (= cell_2_1 7) (= cell_2_1 8) (= cell_2_1 9))))
(assert
 (let (($x1195 (= cell_3_1 9)))
 (let (($x1526 (= cell_3_1 8)))
 (let (($x534 (= cell_3_1 7)))
 (let (($x1945 (= cell_3_1 6)))
 (let (($x2632 (= cell_3_1 5)))
 (let (($x935 (= cell_3_1 4)))
 (let (($x223 (= cell_3_1 3)))
 (let (($x1029 (= cell_3_1 2)))
 (let (($x946 (= cell_3_1 1)))
 (or $x946 $x1029 $x223 $x935 $x2632 $x1945 $x534 $x1526 $x1195)))))))))))
(assert
 (let (($x1718 (= cell_4_1 9)))
 (let (($x426 (= cell_4_1 8)))
 (let (($x146 (= cell_4_1 7)))
 (let (($x2300 (= cell_4_1 6)))
 (let (($x627 (= cell_4_1 5)))
 (let (($x578 (= cell_4_1 4)))
 (let (($x1594 (= cell_4_1 3)))
 (let (($x1329 (= cell_4_1 2)))
 (let (($x805 (= cell_4_1 1)))
 (or $x805 $x1329 $x1594 $x578 $x627 $x2300 $x146 $x426 $x1718)))))))))))
(assert
 (let (($x410 (= cell_5_1 9)))
 (let (($x2916 (= cell_5_1 8)))
 (let (($x1267 (= cell_5_1 7)))
 (let (($x2092 (= cell_5_1 6)))
 (let (($x1037 (= cell_5_1 5)))
 (let (($x2557 (= cell_5_1 4)))
 (let (($x469 (= cell_5_1 3)))
 (let (($x1060 (= cell_5_1 2)))
 (let (($x1500 (= cell_5_1 1)))
 (or $x1500 $x1060 $x469 $x2557 $x1037 $x2092 $x1267 $x2916 $x410)))))))))))
(assert
 (let (($x1612 (= cell_6_1 9)))
 (let (($x362 (= cell_6_1 8)))
 (let (($x2307 (= cell_6_1 7)))
 (let (($x774 (= cell_6_1 6)))
 (let (($x2480 (= cell_6_1 5)))
 (let (($x2391 (= cell_6_1 4)))
 (let (($x995 (= cell_6_1 3)))
 (let (($x2050 (= cell_6_1 2)))
 (let (($x2289 (= cell_6_1 1)))
 (or $x2289 $x2050 $x995 $x2391 $x2480 $x774 $x2307 $x362 $x1612)))))))))))
(assert
 (let (($x1609 (= cell_7_1 2)))
 (or (= cell_7_1 1) $x1609 (= cell_7_1 3) (= cell_7_1 4) (= cell_7_1 5) (= cell_7_1 6) (= cell_7_1 7) (= cell_7_1 8) (= cell_7_1 9))))
(assert
 (let (($x1205 (= cell_8_1 9)))
 (let (($x1349 (= cell_8_1 8)))
 (let (($x830 (= cell_8_1 7)))
 (let (($x1965 (= cell_8_1 6)))
 (let (($x2626 (= cell_8_1 5)))
 (let (($x1347 (= cell_8_1 4)))
 (let (($x2144 (= cell_8_1 3)))
 (let (($x467 (= cell_8_1 2)))
 (let (($x563 (= cell_8_1 1)))
 (or $x563 $x467 $x2144 $x1347 $x2626 $x1965 $x830 $x1349 $x1205)))))))))))
(assert
 (let (($x596 (= cell_9_1 9)))
 (let (($x2073 (= cell_9_1 8)))
 (let (($x192 (= cell_9_1 7)))
 (let (($x2139 (= cell_9_1 6)))
 (let (($x1116 (= cell_9_1 5)))
 (let (($x1003 (= cell_9_1 4)))
 (let (($x903 (= cell_9_1 3)))
 (let (($x2534 (= cell_9_1 2)))
 (let (($x2320 (= cell_9_1 1)))
 (or $x2320 $x2534 $x903 $x1003 $x1116 $x2139 $x192 $x2073 $x596)))))))))))
(assert
 (let (($x901 (= cell_1_2 9)))
 (let (($x1880 (= cell_1_2 8)))
 (let (($x504 (= cell_1_2 7)))
 (let (($x593 (= cell_1_2 6)))
 (let (($x887 (= cell_1_2 5)))
 (let (($x248 (= cell_1_2 4)))
 (let (($x786 (= cell_1_2 3)))
 (let (($x318 (= cell_1_2 2)))
 (let (($x1955 (= cell_1_2 1)))
 (or $x1955 $x318 $x786 $x248 $x887 $x593 $x504 $x1880 $x901)))))))))))
(assert
 (let (($x520 (= cell_2_2 9)))
 (let (($x747 (= cell_2_2 8)))
 (let (($x2678 (= cell_2_2 7)))
 (let (($x1485 (= cell_2_2 6)))
 (let (($x1134 (= cell_2_2 5)))
 (let (($x104 (= cell_2_2 4)))
 (let (($x2939 (= cell_2_2 3)))
 (let (($x1294 (= cell_2_2 2)))
 (let (($x317 (= cell_2_2 1)))
 (or $x317 $x1294 $x2939 $x104 $x1134 $x1485 $x2678 $x747 $x520)))))))))))
(assert
 (let (($x2615 (= cell_3_2 9)))
 (let (($x2460 (= cell_3_2 8)))
 (let (($x2159 (= cell_3_2 7)))
 (let (($x2978 (= cell_3_2 6)))
 (let (($x1834 (= cell_3_2 5)))
 (let (($x2238 (= cell_3_2 4)))
 (let (($x109 (= cell_3_2 3)))
 (let (($x1608 (= cell_3_2 2)))
 (let (($x2624 (= cell_3_2 1)))
 (or $x2624 $x1608 $x109 $x2238 $x1834 $x2978 $x2159 $x2460 $x2615)))))))))))
(assert
 (let (($x2888 (= cell_4_2 2)))
 (or (= cell_4_2 1) $x2888 (= cell_4_2 3) (= cell_4_2 4) (= cell_4_2 5) (= cell_4_2 6) (= cell_4_2 7) (= cell_4_2 8) (= cell_4_2 9))))
(assert
 (let (($x1496 (= cell_5_2 9)))
 (let (($x538 (= cell_5_2 8)))
 (let (($x418 (= cell_5_2 7)))
 (let (($x2568 (= cell_5_2 6)))
 (let (($x201 (= cell_5_2 5)))
 (let (($x498 (= cell_5_2 4)))
 (let (($x438 (= cell_5_2 3)))
 (let (($x184 (= cell_5_2 2)))
 (let (($x923 (= cell_5_2 1)))
 (or $x923 $x184 $x438 $x498 $x201 $x2568 $x418 $x538 $x1496)))))))))))
(assert
 (let (($x2783 (= cell_6_2 9)))
 (let (($x1436 (= cell_6_2 8)))
 (let (($x1558 (= cell_6_2 7)))
 (let (($x2153 (= cell_6_2 6)))
 (let (($x1626 (= cell_6_2 5)))
 (let (($x2791 (= cell_6_2 4)))
 (let (($x67 (= cell_6_2 3)))
 (let (($x922 (= cell_6_2 2)))
 (let (($x298 (= cell_6_2 1)))
 (or $x298 $x922 $x67 $x2791 $x1626 $x2153 $x1558 $x1436 $x2783)))))))))))
(assert
 (let (($x91 (= cell_7_2 9)))
 (let (($x364 (= cell_7_2 8)))
 (let (($x2142 (= cell_7_2 7)))
 (let (($x1615 (= cell_7_2 6)))
 (let (($x1701 (= cell_7_2 5)))
 (let (($x625 (= cell_7_2 4)))
 (let (($x1331 (= cell_7_2 3)))
 (let (($x757 (= cell_7_2 2)))
 (let (($x270 (= cell_7_2 1)))
 (or $x270 $x757 $x1331 $x625 $x1701 $x1615 $x2142 $x364 $x91)))))))))))
(assert
 (let (($x1268 (= cell_8_2 1)))
 (or $x1268 (= cell_8_2 2) (= cell_8_2 3) (= cell_8_2 4) (= cell_8_2 5) (= cell_8_2 6) (= cell_8_2 7) (= cell_8_2 8) (= cell_8_2 9))))
(assert
 (let (($x220 (= cell_9_2 9)))
 (let (($x287 (= cell_9_2 8)))
 (let (($x2343 (= cell_9_2 7)))
 (let (($x858 (= cell_9_2 6)))
 (let (($x1456 (= cell_9_2 5)))
 (let (($x1781 (= cell_9_2 4)))
 (let (($x2354 (= cell_9_2 3)))
 (let (($x369 (= cell_9_2 2)))
 (let (($x1546 (= cell_9_2 1)))
 (or $x1546 $x369 $x2354 $x1781 $x1456 $x858 $x2343 $x287 $x220)))))))))))
(assert
 (let (($x1005 (= cell_1_3 9)))
 (let (($x1888 (= cell_1_3 8)))
 (let (($x1034 (= cell_1_3 7)))
 (let (($x2384 (= cell_1_3 6)))
 (let (($x2202 (= cell_1_3 5)))
 (let (($x2595 (= cell_1_3 4)))
 (let (($x2274 (= cell_1_3 3)))
 (let (($x1151 (= cell_1_3 2)))
 (let (($x709 (= cell_1_3 1)))
 (or $x709 $x1151 $x2274 $x2595 $x2202 $x2384 $x1034 $x1888 $x1005)))))))))))
(assert
 (let (($x2067 (= cell_2_3 2)))
 (or (= cell_2_3 1) $x2067 (= cell_2_3 3) (= cell_2_3 4) (= cell_2_3 5) (= cell_2_3 6) (= cell_2_3 7) (= cell_2_3 8) (= cell_2_3 9))))
(assert
 (let (($x1698 (= cell_3_3 9)))
 (let (($x2134 (= cell_3_3 8)))
 (let (($x2721 (= cell_3_3 7)))
 (let (($x1553 (= cell_3_3 6)))
 (let (($x1764 (= cell_3_3 5)))
 (let (($x1998 (= cell_3_3 4)))
 (let (($x732 (= cell_3_3 3)))
 (let (($x2992 (= cell_3_3 2)))
 (let (($x1142 (= cell_3_3 1)))
 (or $x1142 $x2992 $x732 $x1998 $x1764 $x1553 $x2721 $x2134 $x1698)))))))))))
(assert
 (let (($x697 (= cell_4_3 9)))
 (let (($x767 (= cell_4_3 8)))
 (let (($x1863 (= cell_4_3 7)))
 (let (($x1302 (= cell_4_3 6)))
 (let (($x1388 (= cell_4_3 5)))
 (let (($x2934 (= cell_4_3 4)))
 (let (($x1324 (= cell_4_3 3)))
 (let (($x1438 (= cell_4_3 2)))
 (let (($x2225 (= cell_4_3 1)))
 (or $x2225 $x1438 $x1324 $x2934 $x1388 $x1302 $x1863 $x767 $x697)))))))))))
(assert
 (let (($x2157 (= cell_5_3 1)))
 (or $x2157 (= cell_5_3 2) (= cell_5_3 3) (= cell_5_3 4) (= cell_5_3 5) (= cell_5_3 6) (= cell_5_3 7) (= cell_5_3 8) (= cell_5_3 9))))
(assert
 (let (($x611 (= cell_6_3 9)))
 (let (($x1793 (= cell_6_3 8)))
 (let (($x545 (= cell_6_3 7)))
 (let (($x839 (= cell_6_3 6)))
 (let (($x2000 (= cell_6_3 5)))
 (let (($x689 (= cell_6_3 4)))
 (let (($x2280 (= cell_6_3 3)))
 (let (($x1519 (= cell_6_3 2)))
 (let (($x92 (= cell_6_3 1)))
 (or $x92 $x1519 $x2280 $x689 $x2000 $x839 $x545 $x1793 $x611)))))))))))
(assert
 (let (($x2348 (= cell_7_3 9)))
 (let (($x1477 (= cell_7_3 8)))
 (let (($x1288 (= cell_7_3 7)))
 (let (($x877 (= cell_7_3 6)))
 (let (($x948 (= cell_7_3 5)))
 (let (($x280 (= cell_7_3 4)))
 (let (($x2886 (= cell_7_3 3)))
 (let (($x157 (= cell_7_3 2)))
 (let (($x1565 (= cell_7_3 1)))
 (or $x1565 $x157 $x2886 $x280 $x948 $x877 $x1288 $x1477 $x2348)))))))))))
(assert
 (let (($x2512 (= cell_8_3 9)))
 (let (($x692 (= cell_8_3 8)))
 (let (($x1650 (= cell_8_3 7)))
 (let (($x848 (= cell_8_3 6)))
 (let (($x2517 (= cell_8_3 5)))
 (let (($x1722 (= cell_8_3 4)))
 (let (($x1419 (= cell_8_3 3)))
 (let (($x517 (= cell_8_3 2)))
 (let (($x380 (= cell_8_3 1)))
 (or $x380 $x517 $x1419 $x1722 $x2517 $x848 $x1650 $x692 $x2512)))))))))))
(assert
 (let (($x1785 (= cell_9_3 9)))
 (let (($x2500 (= cell_9_3 8)))
 (let (($x1138 (= cell_9_3 7)))
 (let (($x1004 (= cell_9_3 6)))
 (let (($x2191 (= cell_9_3 5)))
 (let (($x2285 (= cell_9_3 4)))
 (let (($x2749 (= cell_9_3 3)))
 (let (($x226 (= cell_9_3 2)))
 (let (($x2212 (= cell_9_3 1)))
 (or $x2212 $x226 $x2749 $x2285 $x2191 $x1004 $x1138 $x2500 $x1785)))))))))))
(assert
 (let (($x2775 (= cell_1_4 9)))
 (let (($x1901 (= cell_1_4 8)))
 (let (($x1377 (= cell_1_4 7)))
 (let (($x997 (= cell_1_4 6)))
 (let (($x2754 (= cell_1_4 5)))
 (let (($x2835 (= cell_1_4 4)))
 (let (($x979 (= cell_1_4 3)))
 (let (($x239 (= cell_1_4 2)))
 (let (($x1772 (= cell_1_4 1)))
 (or $x1772 $x239 $x979 $x2835 $x2754 $x997 $x1377 $x1901 $x2775)))))))))))
(assert
 (let (($x1882 (= cell_2_4 9)))
 (let (($x53 (= cell_2_4 8)))
 (let (($x2180 (= cell_2_4 7)))
 (let (($x2340 (= cell_2_4 6)))
 (let (($x2185 (= cell_2_4 5)))
 (let (($x1097 (= cell_2_4 4)))
 (let (($x812 (= cell_2_4 3)))
 (let (($x1157 (= cell_2_4 2)))
 (let (($x1719 (= cell_2_4 1)))
 (or $x1719 $x1157 $x812 $x1097 $x2185 $x2340 $x2180 $x53 $x1882)))))))))))
(assert
 (let (($x2279 (= cell_3_4 9)))
 (let (($x2401 (= cell_3_4 8)))
 (let (($x2525 (= cell_3_4 7)))
 (let (($x2130 (= cell_3_4 6)))
 (let (($x773 (= cell_3_4 5)))
 (let (($x1152 (= cell_3_4 4)))
 (let (($x2874 (= cell_3_4 3)))
 (let (($x1690 (= cell_3_4 2)))
 (let (($x2956 (= cell_3_4 1)))
 (or $x2956 $x1690 $x2874 $x1152 $x773 $x2130 $x2525 $x2401 $x2279)))))))))))
(assert
 (let (($x2043 (= cell_4_4 9)))
 (let (($x1602 (= cell_4_4 8)))
 (let (($x373 (= cell_4_4 7)))
 (let (($x2284 (= cell_4_4 6)))
 (let (($x2987 (= cell_4_4 5)))
 (let (($x603 (= cell_4_4 4)))
 (let (($x381 (= cell_4_4 3)))
 (let (($x791 (= cell_4_4 2)))
 (let (($x31 (= cell_4_4 1)))
 (or $x31 $x791 $x381 $x603 $x2987 $x2284 $x373 $x1602 $x2043)))))))))))
(assert
 (let (($x2241 (= cell_5_4 9)))
 (let (($x372 (= cell_5_4 8)))
 (let (($x171 (= cell_5_4 7)))
 (let (($x1480 (= cell_5_4 6)))
 (let (($x2039 (= cell_5_4 5)))
 (let (($x2151 (= cell_5_4 4)))
 (let (($x1043 (= cell_5_4 3)))
 (let (($x2674 (= cell_5_4 2)))
 (let (($x1711 (= cell_5_4 1)))
 (or $x1711 $x2674 $x1043 $x2151 $x2039 $x1480 $x171 $x372 $x2241)))))))))))
(assert
 (let (($x2118 (= cell_6_4 1)))
 (or $x2118 (= cell_6_4 2) (= cell_6_4 3) (= cell_6_4 4) (= cell_6_4 5) (= cell_6_4 6) (= cell_6_4 7) (= cell_6_4 8) (= cell_6_4 9))))
(assert
 (let (($x933 (= cell_7_4 9)))
 (let (($x972 (= cell_7_4 8)))
 (let (($x644 (= cell_7_4 7)))
 (let (($x751 (= cell_7_4 6)))
 (let (($x2342 (= cell_7_4 5)))
 (let (($x332 (= cell_7_4 4)))
 (let (($x2213 (= cell_7_4 3)))
 (let (($x358 (= cell_7_4 2)))
 (let (($x1052 (= cell_7_4 1)))
 (or $x1052 $x358 $x2213 $x332 $x2342 $x751 $x644 $x972 $x933)))))))))))
(assert
 (let (($x782 (= cell_8_4 9)))
 (let (($x920 (= cell_8_4 8)))
 (let (($x2726 (= cell_8_4 7)))
 (let (($x910 (= cell_8_4 6)))
 (let (($x2856 (= cell_8_4 5)))
 (let (($x2066 (= cell_8_4 4)))
 (let (($x1360 (= cell_8_4 3)))
 (let (($x229 (= cell_8_4 2)))
 (let (($x926 (= cell_8_4 1)))
 (or $x926 $x229 $x1360 $x2066 $x2856 $x910 $x2726 $x920 $x782)))))))))))
(assert
 (let (($x1706 (= cell_9_4 2)))
 (or (= cell_9_4 1) $x1706 (= cell_9_4 3) (= cell_9_4 4) (= cell_9_4 5) (= cell_9_4 6) (= cell_9_4 7) (= cell_9_4 8) (= cell_9_4 9))))
(assert
 (let (($x2648 (= cell_1_5 3)))
 (or (= cell_1_5 1) (= cell_1_5 2) $x2648 (= cell_1_5 4) (= cell_1_5 5) (= cell_1_5 6) (= cell_1_5 7) (= cell_1_5 8) (= cell_1_5 9))))
(assert
 (let (($x1627 (= cell_2_5 9)))
 (let (($x2125 (= cell_2_5 8)))
 (let (($x2177 (= cell_2_5 7)))
 (let (($x2146 (= cell_2_5 6)))
 (let (($x73 (= cell_2_5 5)))
 (let (($x1415 (= cell_2_5 4)))
 (let (($x64 (= cell_2_5 3)))
 (let (($x2960 (= cell_2_5 2)))
 (let (($x1871 (= cell_2_5 1)))
 (or $x1871 $x2960 $x64 $x1415 $x73 $x2146 $x2177 $x2125 $x1627)))))))))))
(assert
 (let (($x2237 (= cell_3_5 2)))
 (or (= cell_3_5 1) $x2237 (= cell_3_5 3) (= cell_3_5 4) (= cell_3_5 5) (= cell_3_5 6) (= cell_3_5 7) (= cell_3_5 8) (= cell_3_5 9))))
(assert
 (let (($x696 (= cell_4_5 9)))
 (let (($x1089 (= cell_4_5 8)))
 (let (($x2982 (= cell_4_5 7)))
 (let (($x1823 (= cell_4_5 6)))
 (let (($x1332 (= cell_4_5 5)))
 (let (($x1692 (= cell_4_5 4)))
 (let (($x63 (= cell_4_5 3)))
 (let (($x2687 (= cell_4_5 2)))
 (let (($x748 (= cell_4_5 1)))
 (or $x748 $x2687 $x63 $x1692 $x1332 $x1823 $x2982 $x1089 $x696)))))))))))
(assert
 (let (($x2814 (= cell_5_5 9)))
 (let (($x1721 (= cell_5_5 8)))
 (let (($x27 (= cell_5_5 7)))
 (let (($x2722 (= cell_5_5 6)))
 (let (($x980 (= cell_5_5 5)))
 (let (($x3550 (= cell_5_5 4)))
 (let (($x1148 (= cell_5_5 3)))
 (let (($x2035 (= cell_5_5 2)))
 (let (($x2824 (= cell_5_5 1)))
 (or $x2824 $x2035 $x1148 $x3550 $x980 $x2722 $x27 $x1721 $x2814)))))))))))
(assert
 (let (($x658 (= cell_6_5 9)))
 (let (($x2900 (= cell_6_5 8)))
 (let (($x2647 (= cell_6_5 7)))
 (let (($x1958 (= cell_6_5 6)))
 (let (($x312 (= cell_6_5 5)))
 (let (($x2815 (= cell_6_5 4)))
 (let (($x2580 (= cell_6_5 3)))
 (let (($x1660 (= cell_6_5 2)))
 (let (($x1014 (= cell_6_5 1)))
 (or $x1014 $x1660 $x2580 $x2815 $x312 $x1958 $x2647 $x2900 $x658)))))))))))
(assert
 (let (($x2712 (= cell_7_5 1)))
 (or $x2712 (= cell_7_5 2) (= cell_7_5 3) (= cell_7_5 4) (= cell_7_5 5) (= cell_7_5 6) (= cell_7_5 7) (= cell_7_5 8) (= cell_7_5 9))))
(assert
 (let (($x2083 (= cell_8_5 9)))
 (let (($x2282 (= cell_8_5 8)))
 (let (($x2424 (= cell_8_5 7)))
 (let (($x2373 (= cell_8_5 6)))
 (let (($x532 (= cell_8_5 5)))
 (let (($x1085 (= cell_8_5 4)))
 (let (($x831 (= cell_8_5 3)))
 (let (($x1338 (= cell_8_5 2)))
 (let (($x2743 (= cell_8_5 1)))
 (or $x2743 $x1338 $x831 $x1085 $x532 $x2373 $x2424 $x2282 $x2083)))))))))))
(assert
 (let (($x2921 (= cell_9_5 9)))
 (let (($x2593 (= cell_9_5 8)))
 (let (($x1420 (= cell_9_5 7)))
 (let (($x986 (= cell_9_5 6)))
 (let (($x2183 (= cell_9_5 5)))
 (let (($x1839 (= cell_9_5 4)))
 (let (($x2119 (= cell_9_5 3)))
 (let (($x2781 (= cell_9_5 2)))
 (let (($x1889 (= cell_9_5 1)))
 (or $x1889 $x2781 $x2119 $x1839 $x2183 $x986 $x1420 $x2593 $x2921)))))))))))
(assert
 (let (($x1929 (= cell_1_6 9)))
 (let (($x1336 (= cell_1_6 8)))
 (let (($x522 (= cell_1_6 7)))
 (let (($x688 (= cell_1_6 6)))
 (let (($x2080 (= cell_1_6 5)))
 (let (($x2082 (= cell_1_6 4)))
 (let (($x711 (= cell_1_6 3)))
 (let (($x2918 (= cell_1_6 2)))
 (let (($x2935 (= cell_1_6 1)))
 (or $x2935 $x2918 $x711 $x2082 $x2080 $x688 $x522 $x1336 $x1929)))))))))))
(assert
 (let (($x2516 (= cell_2_6 9)))
 (let (($x1126 (= cell_2_6 8)))
 (let (($x250 (= cell_2_6 7)))
 (let (($x2403 (= cell_2_6 6)))
 (let (($x262 (= cell_2_6 5)))
 (let (($x2154 (= cell_2_6 4)))
 (let (($x1538 (= cell_2_6 3)))
 (let (($x2897 (= cell_2_6 2)))
 (let (($x531 (= cell_2_6 1)))
 (or $x531 $x2897 $x1538 $x2154 $x262 $x2403 $x250 $x1126 $x2516)))))))))))
(assert
 (let (($x1373 (= cell_3_6 1)))
 (or $x1373 (= cell_3_6 2) (= cell_3_6 3) (= cell_3_6 4) (= cell_3_6 5) (= cell_3_6 6) (= cell_3_6 7) (= cell_3_6 8) (= cell_3_6 9))))
(assert
 (let (($x2685 (= cell_4_6 9)))
 (let (($x710 (= cell_4_6 8)))
 (let (($x2583 (= cell_4_6 7)))
 (let (($x2625 (= cell_4_6 6)))
 (let (($x2305 (= cell_4_6 5)))
 (let (($x72 (= cell_4_6 4)))
 (let (($x564 (= cell_4_6 3)))
 (let (($x1916 (= cell_4_6 2)))
 (let (($x2372 (= cell_4_6 1)))
 (or $x2372 $x1916 $x564 $x72 $x2305 $x2625 $x2583 $x710 $x2685)))))))))))
(assert
 (let (($x2968 (= cell_5_6 9)))
 (let (($x1457 (= cell_5_6 8)))
 (let (($x1632 (= cell_5_6 7)))
 (let (($x1144 (= cell_5_6 6)))
 (let (($x550 (= cell_5_6 5)))
 (let (($x2742 (= cell_5_6 4)))
 (let (($x1617 (= cell_5_6 3)))
 (let (($x2255 (= cell_5_6 2)))
 (let (($x129 (= cell_5_6 1)))
 (or $x129 $x2255 $x1617 $x2742 $x550 $x1144 $x1632 $x1457 $x2968)))))))))))
(assert
 (let (($x1761 (= cell_6_6 2)))
 (or (= cell_6_6 1) $x1761 (= cell_6_6 3) (= cell_6_6 4) (= cell_6_6 5) (= cell_6_6 6) (= cell_6_6 7) (= cell_6_6 8) (= cell_6_6 9))))
(assert
 (let (($x624 (= cell_7_6 9)))
 (let (($x354 (= cell_7_6 8)))
 (let (($x2069 (= cell_7_6 7)))
 (let (($x1482 (= cell_7_6 6)))
 (let (($x468 (= cell_7_6 5)))
 (let (($x1013 (= cell_7_6 4)))
 (let (($x49 (= cell_7_6 3)))
 (let (($x546 (= cell_7_6 2)))
 (let (($x1489 (= cell_7_6 1)))
 (or $x1489 $x546 $x49 $x1013 $x468 $x1482 $x2069 $x354 $x624)))))))))))
(assert
 (let (($x1738 (= cell_8_6 9)))
 (let (($x1521 (= cell_8_6 8)))
 (let (($x186 (= cell_8_6 7)))
 (let (($x1351 (= cell_8_6 6)))
 (let (($x404 (= cell_8_6 5)))
 (let (($x2321 (= cell_8_6 4)))
 (let (($x2764 (= cell_8_6 3)))
 (let (($x203 (= cell_8_6 2)))
 (let (($x881 (= cell_8_6 1)))
 (or $x881 $x203 $x2764 $x2321 $x404 $x1351 $x186 $x1521 $x1738)))))))))))
(assert
 (let (($x79 (= cell_9_6 9)))
 (let (($x962 (= cell_9_6 8)))
 (let (($x988 (= cell_9_6 7)))
 (let (($x1894 (= cell_9_6 6)))
 (let (($x339 (= cell_9_6 5)))
 (let (($x260 (= cell_9_6 4)))
 (let (($x2138 (= cell_9_6 3)))
 (let (($x2782 (= cell_9_6 2)))
 (let (($x2250 (= cell_9_6 1)))
 (or $x2250 $x2782 $x2138 $x260 $x339 $x1894 $x988 $x962 $x79)))))))))))
(assert
 (let (($x1984 (= cell_1_7 2)))
 (or (= cell_1_7 1) $x1984 (= cell_1_7 3) (= cell_1_7 4) (= cell_1_7 5) (= cell_1_7 6) (= cell_1_7 7) (= cell_1_7 8) (= cell_1_7 9))))
(assert
 (let (($x2248 (= cell_2_7 9)))
 (let (($x942 (= cell_2_7 8)))
 (let (($x345 (= cell_2_7 7)))
 (let (($x76 (= cell_2_7 6)))
 (let (($x921 (= cell_2_7 5)))
 (let (($x1368 (= cell_2_7 4)))
 (let (($x2155 (= cell_2_7 3)))
 (let (($x1878 (= cell_2_7 2)))
 (let (($x523 (= cell_2_7 1)))
 (or $x523 $x1878 $x2155 $x1368 $x921 $x76 $x345 $x942 $x2248)))))))))))
(assert
 (let (($x143 (= cell_3_7 9)))
 (let (($x2276 (= cell_3_7 8)))
 (let (($x1582 (= cell_3_7 7)))
 (let (($x1741 (= cell_3_7 6)))
 (let (($x2529 (= cell_3_7 5)))
 (let (($x2607 (= cell_3_7 4)))
 (let (($x2586 (= cell_3_7 3)))
 (let (($x728 (= cell_3_7 2)))
 (let (($x1836 (= cell_3_7 1)))
 (or $x1836 $x728 $x2586 $x2607 $x2529 $x1741 $x1582 $x2276 $x143)))))))))))
(assert
 (let (($x230 (= cell_4_7 9)))
 (let (($x776 (= cell_4_7 8)))
 (let (($x893 (= cell_4_7 7)))
 (let (($x1729 (= cell_4_7 6)))
 (let (($x2077 (= cell_4_7 5)))
 (let (($x2875 (= cell_4_7 4)))
 (let (($x338 (= cell_4_7 3)))
 (let (($x2531 (= cell_4_7 2)))
 (let (($x574 (= cell_4_7 1)))
 (or $x574 $x2531 $x338 $x2875 $x2077 $x1729 $x893 $x776 $x230)))))))))))
(assert
 (let (($x421 (= cell_5_7 9)))
 (let (($x401 (= cell_5_7 8)))
 (let (($x1311 (= cell_5_7 7)))
 (let (($x590 (= cell_5_7 6)))
 (let (($x945 (= cell_5_7 5)))
 (let (($x601 (= cell_5_7 4)))
 (let (($x487 (= cell_5_7 3)))
 (let (($x1385 (= cell_5_7 2)))
 (let (($x2459 (= cell_5_7 1)))
 (or $x2459 $x1385 $x487 $x601 $x945 $x590 $x1311 $x401 $x421)))))))))))
(assert
 (let (($x1825 (= cell_6_7 9)))
 (let (($x899 (= cell_6_7 8)))
 (let (($x808 (= cell_6_7 7)))
 (let (($x2713 (= cell_6_7 6)))
 (let (($x483 (= cell_6_7 5)))
 (let (($x755 (= cell_6_7 4)))
 (let (($x189 (= cell_6_7 3)))
 (let (($x2802 (= cell_6_7 2)))
 (let (($x1808 (= cell_6_7 1)))
 (or $x1808 $x2802 $x189 $x755 $x483 $x2713 $x808 $x899 $x1825)))))))))))
(assert
 (let (($x2868 (= cell_7_7 9)))
 (let (($x743 (= cell_7_7 8)))
 (let (($x2690 (= cell_7_7 7)))
 (let (($x2730 (= cell_7_7 6)))
 (let (($x2423 (= cell_7_7 5)))
 (let (($x746 (= cell_7_7 4)))
 (let (($x1855 (= cell_7_7 3)))
 (let (($x1890 (= cell_7_7 2)))
 (let (($x2612 (= cell_7_7 1)))
 (or $x2612 $x1890 $x1855 $x746 $x2423 $x2730 $x2690 $x743 $x2868)))))))))))
(assert
 (let (($x360 (= cell_8_7 9)))
 (let (($x70 (= cell_8_7 8)))
 (let (($x1854 (= cell_8_7 7)))
 (let (($x335 (= cell_8_7 6)))
 (let (($x671 (= cell_8_7 5)))
 (let (($x2827 (= cell_8_7 4)))
 (let (($x588 (= cell_8_7 3)))
 (let (($x336 (= cell_8_7 2)))
 (let (($x975 (= cell_8_7 1)))
 (or $x975 $x336 $x588 $x2827 $x671 $x335 $x1854 $x70 $x360)))))))))))
(assert
 (let (($x2949 (= cell_9_7 1)))
 (or $x2949 (= cell_9_7 2) (= cell_9_7 3) (= cell_9_7 4) (= cell_9_7 5) (= cell_9_7 6) (= cell_9_7 7) (= cell_9_7 8) (= cell_9_7 9))))
(assert
 (let (($x363 (= cell_1_8 9)))
 (let (($x1317 (= cell_1_8 8)))
 (let (($x1265 (= cell_1_8 7)))
 (let (($x2578 (= cell_1_8 6)))
 (let (($x2196 (= cell_1_8 5)))
 (let (($x1623 (= cell_1_8 4)))
 (let (($x568 (= cell_1_8 3)))
 (let (($x212 (= cell_1_8 2)))
 (let (($x1241 (= cell_1_8 1)))
 (or $x1241 $x212 $x568 $x1623 $x2196 $x2578 $x1265 $x1317 $x363)))))))))))
(assert
 (let (($x2903 (= cell_2_8 9)))
 (let (($x1859 (= cell_2_8 8)))
 (let (($x1356 (= cell_2_8 7)))
 (let (($x657 (= cell_2_8 6)))
 (let (($x1434 (= cell_2_8 5)))
 (let (($x2141 (= cell_2_8 4)))
 (let (($x231 (= cell_2_8 3)))
 (let (($x827 (= cell_2_8 2)))
 (let (($x2058 (= cell_2_8 1)))
 (or $x2058 $x827 $x231 $x2141 $x1434 $x657 $x1356 $x1859 $x2903)))))))))))
(assert
 (let (($x2333 (= cell_3_8 9)))
 (let (($x1768 (= cell_3_8 8)))
 (let (($x2046 (= cell_3_8 7)))
 (let (($x423 (= cell_3_8 6)))
 (let (($x855 (= cell_3_8 5)))
 (let (($x342 (= cell_3_8 4)))
 (let (($x1827 (= cell_3_8 3)))
 (let (($x2970 (= cell_3_8 2)))
 (let (($x2253 (= cell_3_8 1)))
 (or $x2253 $x2970 $x1827 $x342 $x855 $x423 $x2046 $x1768 $x2333)))))))))))
(assert
 (let (($x2167 (= cell_4_8 1)))
 (or $x2167 (= cell_4_8 2) (= cell_4_8 3) (= cell_4_8 4) (= cell_4_8 5) (= cell_4_8 6) (= cell_4_8 7) (= cell_4_8 8) (= cell_4_8 9))))
(assert
 (let (($x2661 (= cell_5_8 9)))
 (let (($x1775 (= cell_5_8 8)))
 (let (($x1949 (= cell_5_8 7)))
 (let (($x2669 (= cell_5_8 6)))
 (let (($x2762 (= cell_5_8 5)))
 (let (($x1844 (= cell_5_8 4)))
 (let (($x1371 (= cell_5_8 3)))
 (let (($x2658 (= cell_5_8 2)))
 (let (($x2509 (= cell_5_8 1)))
 (or $x2509 $x2658 $x1371 $x1844 $x2762 $x2669 $x1949 $x1775 $x2661)))))))))))
(assert
 (let (($x646 (= cell_6_8 9)))
 (let (($x2001 (= cell_6_8 8)))
 (let (($x2019 (= cell_6_8 7)))
 (let (($x1387 (= cell_6_8 6)))
 (let (($x174 (= cell_6_8 5)))
 (let (($x2088 (= cell_6_8 4)))
 (let (($x1688 (= cell_6_8 3)))
 (let (($x634 (= cell_6_8 2)))
 (let (($x1931 (= cell_6_8 1)))
 (or $x1931 $x634 $x1688 $x2088 $x174 $x1387 $x2019 $x2001 $x646)))))))))))
(assert
 (let (($x909 (= cell_7_8 9)))
 (let (($x2589 (= cell_7_8 8)))
 (let (($x1131 (= cell_7_8 7)))
 (let (($x652 (= cell_7_8 6)))
 (let (($x1809 (= cell_7_8 5)))
 (let (($x2283 (= cell_7_8 4)))
 (let (($x888 (= cell_7_8 3)))
 (let (($x2622 (= cell_7_8 2)))
 (let (($x2054 (= cell_7_8 1)))
 (or $x2054 $x2622 $x888 $x2283 $x1809 $x652 $x1131 $x2589 $x909)))))))))))
(assert
 (let (($x113 (= cell_8_8 2)))
 (or (= cell_8_8 1) $x113 (= cell_8_8 3) (= cell_8_8 4) (= cell_8_8 5) (= cell_8_8 6) (= cell_8_8 7) (= cell_8_8 8) (= cell_8_8 9))))
(assert
 (let (($x1256 (= cell_9_8 3)))
 (let (($x835 (= cell_9_8 2)))
 (let (($x368 (= cell_9_8 1)))
 (or $x368 $x835 $x1256 (= cell_9_8 4) (= cell_9_8 5) (= cell_9_8 6) (= cell_9_8 7) (= cell_9_8 8) (= cell_9_8 9))))))
(assert
 (let (($x2133 (= cell_1_9 9)))
 (let (($x2065 (= cell_1_9 8)))
 (let (($x896 (= cell_1_9 7)))
 (let (($x878 (= cell_1_9 6)))
 (let (($x139 (= cell_1_9 5)))
 (let (($x417 (= cell_1_9 4)))
 (let (($x2808 (= cell_1_9 3)))
 (let (($x1260 (= cell_1_9 2)))
 (let (($x2311 (= cell_1_9 1)))
 (or $x2311 $x1260 $x2808 $x417 $x139 $x878 $x896 $x2065 $x2133)))))))))))
(assert
 (let (($x2101 (= cell_2_9 1)))
 (or $x2101 (= cell_2_9 2) (= cell_2_9 3) (= cell_2_9 4) (= cell_2_9 5) (= cell_2_9 6) (= cell_2_9 7) (= cell_2_9 8) (= cell_2_9 9))))
(assert
 (let (($x244 (= cell_3_9 9)))
 (let (($x2969 (= cell_3_9 8)))
 (let (($x2332 (= cell_3_9 7)))
 (let (($x268 (= cell_3_9 6)))
 (let (($x823 (= cell_3_9 5)))
 (let (($x383 (= cell_3_9 4)))
 (let (($x535 (= cell_3_9 3)))
 (let (($x42 (= cell_3_9 2)))
 (let (($x797 (= cell_3_9 1)))
 (or $x797 $x42 $x535 $x383 $x823 $x268 $x2332 $x2969 $x244)))))))))))
(assert
 (let (($x2870 (= cell_4_9 9)))
 (let (($x1572 (= cell_4_9 8)))
 (let (($x1283 (= cell_4_9 7)))
 (let (($x2365 (= cell_4_9 6)))
 (let (($x2189 (= cell_4_9 5)))
 (let (($x2675 (= cell_4_9 4)))
 (let (($x665 (= cell_4_9 3)))
 (let (($x277 (= cell_4_9 2)))
 (let (($x413 (= cell_4_9 1)))
 (or $x413 $x277 $x665 $x2675 $x2189 $x2365 $x1283 $x1572 $x2870)))))))))))
(assert
 (let (($x2877 (= cell_5_9 2)))
 (or (= cell_5_9 1) $x2877 (= cell_5_9 3) (= cell_5_9 4) (= cell_5_9 5) (= cell_5_9 6) (= cell_5_9 7) (= cell_5_9 8) (= cell_5_9 9))))
(assert
 (let (($x2036 (= cell_6_9 2)))
 (let (($x309 (= cell_6_9 1)))
 (or $x309 $x2036 (= cell_6_9 3) (= cell_6_9 4) (= cell_6_9 5) (= cell_6_9 6) (= cell_6_9 7) (= cell_6_9 8) (= cell_6_9 9)))))
(assert
 (let (($x857 (= cell_7_9 9)))
 (let (($x2240 (= cell_7_9 8)))
 (let (($x366 (= cell_7_9 7)))
 (let (($x2484 (= cell_7_9 6)))
 (let (($x703 (= cell_7_9 5)))
 (let (($x2003 (= cell_7_9 4)))
 (let (($x2147 (= cell_7_9 3)))
 (let (($x1787 (= cell_7_9 2)))
 (let (($x2207 (= cell_7_9 1)))
 (or $x2207 $x1787 $x2147 $x2003 $x703 $x2484 $x366 $x2240 $x857)))))))))))
(assert
 (let (($x2490 (= cell_8_9 9)))
 (let (($x1305 (= cell_8_9 8)))
 (let (($x2244 (= cell_8_9 7)))
 (let (($x257 (= cell_8_9 6)))
 (let (($x1117 (= cell_8_9 5)))
 (let (($x2346 (= cell_8_9 4)))
 (let (($x1886 (= cell_8_9 3)))
 (let (($x2807 (= cell_8_9 2)))
 (let (($x1401 (= cell_8_9 1)))
 (or $x1401 $x2807 $x1886 $x2346 $x1117 $x257 $x2244 $x1305 $x2490)))))))))))
(assert
 (let (($x1648 (= cell_9_9 2)))
 (let (($x1091 (= cell_9_9 1)))
 (or $x1091 $x1648 (= cell_9_9 3) (= cell_9_9 4) (= cell_9_9 5) (= cell_9_9 6) (= cell_9_9 7) (= cell_9_9 8) (= cell_9_9 9)))))
(assert
 (and (distinct cell_1_1 cell_1_2 cell_1_3 cell_1_4 cell_1_5 cell_1_6 cell_1_7 cell_1_8 cell_1_9) true))
(assert
 (and (distinct cell_2_1 cell_2_2 cell_2_3 cell_2_4 cell_2_5 cell_2_6 cell_2_7 cell_2_8 cell_2_9) true))
(assert
 (and (distinct cell_3_1 cell_3_2 cell_3_3 cell_3_4 cell_3_5 cell_3_6 cell_3_7 cell_3_8 cell_3_9) true))
(assert
 (and (distinct cell_4_1 cell_4_2 cell_4_3 cell_4_4 cell_4_5 cell_4_6 cell_4_7 cell_4_8 cell_4_9) true))
(assert
 (and (distinct cell_5_1 cell_5_2 cell_5_3 cell_5_4 cell_5_5 cell_5_6 cell_5_7 cell_5_8 cell_5_9) true))
(assert
 (and (distinct cell_6_1 cell_6_2 cell_6_3 cell_6_4 cell_6_5 cell_6_6 cell_6_7 cell_6_8 cell_6_9) true))
(assert
 (and (distinct cell_7_1 cell_7_2 cell_7_3 cell_7_4 cell_7_5 cell_7_6 cell_7_7 cell_7_8 cell_7_9) true))
(assert
 (and (distinct cell_8_1 cell_8_2 cell_8_3 cell_8_4 cell_8_5 cell_8_6 cell_8_7 cell_8_8 cell_8_9) true))
(assert
 (and (distinct cell_9_1 cell_9_2 cell_9_3 cell_9_4 cell_9_5 cell_9_6 cell_9_7 cell_9_8 cell_9_9) true))
(assert
 (and (distinct cell_1_1 cell_2_1 cell_3_1 cell_4_1 cell_5_1 cell_6_1 cell_7_1 cell_8_1 cell_9_1) true))
(assert
 (and (distinct cell_1_2 cell_2_2 cell_3_2 cell_4_2 cell_5_2 cell_6_2 cell_7_2 cell_8_2 cell_9_2) true))
(assert
 (and (distinct cell_1_3 cell_2_3 cell_3_3 cell_4_3 cell_5_3 cell_6_3 cell_7_3 cell_8_3 cell_9_3) true))
(assert
 (and (distinct cell_1_4 cell_2_4 cell_3_4 cell_4_4 cell_5_4 cell_6_4 cell_7_4 cell_8_4 cell_9_4) true))
(assert
 (and (distinct cell_1_5 cell_2_5 cell_3_5 cell_4_5 cell_5_5 cell_6_5 cell_7_5 cell_8_5 cell_9_5) true))
(assert
 (and (distinct cell_1_6 cell_2_6 cell_3_6 cell_4_6 cell_5_6 cell_6_6 cell_7_6 cell_8_6 cell_9_6) true))
(assert
 (and (distinct cell_1_7 cell_2_7 cell_3_7 cell_4_7 cell_5_7 cell_6_7 cell_7_7 cell_8_7 cell_9_7) true))
(assert
 (and (distinct cell_1_8 cell_2_8 cell_3_8 cell_4_8 cell_5_8 cell_6_8 cell_7_8 cell_8_8 cell_9_8) true))
(assert
 (and (distinct cell_1_9 cell_2_9 cell_3_9 cell_4_9 cell_5_9 cell_6_9 cell_7_9 cell_8_9 cell_9_9) true))
(assert
 (and (distinct cell_1_1 cell_1_2 cell_1_3 cell_2_1 cell_2_2 cell_2_3 cell_3_1 cell_3_2 cell_3_3) true))
(assert
 (and (distinct cell_1_4 cell_1_5 cell_1_6 cell_2_4 cell_2_5 cell_2_6 cell_3_4 cell_3_5 cell_3_6) true))
(assert
 (and (distinct cell_1_7 cell_1_8 cell_1_9 cell_2_7 cell_2_8 cell_2_9 cell_3_7 cell_3_8 cell_3_9) true))
(assert
 (and (distinct cell_4_1 cell_4_2 cell_4_3 cell_5_1 cell_5_2 cell_5_3 cell_6_1 cell_6_2 cell_6_3) true))
(assert
 (and (distinct cell_4_4 cell_4_5 cell_4_6 cell_5_4 cell_5_5 cell_5_6 cell_6_4 cell_6_5 cell_6_6) true))
(assert
 (and (distinct cell_4_7 cell_4_8 cell_4_9 cell_5_7 cell_5_8 cell_5_9 cell_6_7 cell_6_8 cell_6_9) true))
(assert
 (and (distinct cell_7_1 cell_7_2 cell_7_3 cell_8_1 cell_8_2 cell_8_3 cell_9_1 cell_9_2 cell_9_3) true))
(assert
 (and (distinct cell_7_4 cell_7_5 cell_7_6 cell_8_4 cell_8_5 cell_8_6 cell_9_4 cell_9_5 cell_9_6) true))
(assert
 (and (distinct cell_7_7 cell_7_8 cell_7_9 cell_8_7 cell_8_8 cell_8_9 cell_9_7 cell_9_8 cell_9_9) true))
(assert
 (let (($x622 (and (distinct cell_5_9 cell_6_8 cell_7_7 cell_8_6) true)))
 (let (($x898 (and (distinct cell_2_9 cell_3_8 cell_4_7 cell_5_6 cell_6_5 cell_7_4 cell_8_3 cell_9_2) true)))
 (let (($x1120 (and (distinct cell_1_8 cell_2_7 cell_3_6 cell_4_5 cell_5_4 cell_6_3 cell_7_2 cell_8_1) true)))
 (let (($x1304 (and (distinct cell_1_5 cell_2_4 cell_3_3 cell_4_2) true)))
 (let (($x2053 (and (distinct cell_5_1 cell_6_2 cell_7_3 cell_8_4) true)))
 (let (($x1686 (and (distinct cell_2_1 cell_3_2 cell_4_3 cell_5_4 cell_6_5 cell_7_6 cell_8_7 cell_9_8) true)))
 (let (($x821 (and (distinct cell_1_2 cell_2_3 cell_3_4 cell_4_5 cell_5_6 cell_6_7 cell_7_8 cell_8_9) true)))
 (let (($x2341 (and (distinct cell_1_5 cell_2_6 cell_3_7 cell_4_8) true)))
 (and $x2341 $x821 $x1686 $x2053 $x1304 $x1120 $x898 $x622))))))))))
(assert
 (and (distinct cell_3_8 3) true))
(check-sat)
